NAME : morphed18-5-16
COMMENT : Generated using the function morphInstances from the R-package netgen (Bossek,2015) - Number of clusters: 5 Alpha: 0.5
TYPE : TSP
DIMENSION : 18
EDGE_WEIGHT_TYPE : EUC_2D
NODE_COORD_SECTION
1 56.6857354189 60.1643263003
2 40.8916269784 9.2823177694
3 39.2682413511 90.8010447572
4 18.6482188084 72.5134269215
5 89.2900878079 39.9907733879
6 34.7027848587 46.7007795575
7 10.9371467847 38.4620923047
8 86.502074887 40.9142828905
9 67.4026180996 74.0753922509
10 16.1029046646 95.2359333504
11 31.6298253489 78.6897376285
12 56.2339785787 45.2747734059
13 35.6927597897 4.3656326648
14 52.5459618162 70.275931997
15 46.4193995721 63.8337624337
16 16.3435097748 80.0318857177
17 91.5175122874 45.5460092741
18 69.796483728 32.1211603851
EOF
